103 6
14 18 14 15 12 12
1 0 0 0 0 0 0 3 2 3 4
10 0 0 8 0 0 0 4 5 6 7 8
1 0 7 0 5 1 0 4 103 6 7 8
3 1 7 2 10 0 10 4 5 6 7 8
4 7 0 8 3 0 0 4 9 10 11 12
1 9 0 4 0 2 0 3 10 11 12
1 0 10 0 0 8 5 4 9 10 11 12
1 1 0 0 0 4 8 1 11
1 0 0 0 0 0 1 3 13 14 16
1 0 0 0 0 4 0 4 13 14 15 16
1 9 0 0 0 0 6 3 13 14 16
6 4 0 1 8 4 0 4 13 14 15 16
4 0 7 0 0 2 0 4 17 18 19 20
1 0 0 0 2 2 8 4 17 18 19 20
5 0 0 6 4 10 7 3 17 18 19
1 0 10 6 0 4 3 4 17 18 19 20
1 1 2 0 5 8 9 3 22 23 24
8 6 4 6 0 9 6 3 22 23 24
1 1 10 6 0 0 0 4 21 22 23 24
2 0 7 0 1 6 0 3 21 23 24
5 9 0 0 1 0 1 3 25 27 28
1 8 2 0 10 0 4 4 25 26 27 28
1 0 3 0 0 0 0 3 26 27 28
10 1 0 4 6 4 6 4 25 26 27 28
3 1 0 0 6 5 3 3 30 31 32
9 0 4 2 0 7 6 4 29 30 31 32
2 0 0 7 6 4 2 4 29 30 31 32
3 0 4 6 9 0 0 4 29 30 31 32
2 0 0 4 10 0 0 3 33 35 36
3 0 0 0 3 8 0 3 33 35 36
8 6 2 0 0 8 5 4 33 34 35 36
1 6 0 0 0 0 0 3 33 35 36
9 8 0 1 0 0 0 3 37 39 40
5 0 10 2 4 9 0 3 37 39 40
2 4 8 8 0 0 0 4 37 38 39 40
1 0 9 0 7 2 6 4 37 38 39 40
1 0 9 0 0 0 0 4 41 42 43 44
1 10 0 1 5 1 10 4 41 42 43 44
9 0 0 2 10 10 2 4 41 42 43 44
1 1 5 5 0 0 4 4 41 42 43 44
1 0 8 7 7 0 0 2 46 47
6 3 1 3 0 0 7 3 46 47 48
1 0 6 10 7 0 0 4 45 46 47 48
3 4 9 0 5 0 4 3 45 46 48
2 0 9 0 0 7 7 4 49 50 51 52
1 0 7 2 0 0 0 4 49 50 51 52
10 8 6 3 0 8 0 4 49 50 51 52
2 9 2 8 4 0 3 3 49 50 52
5 1 5 7 0 0 0 3 53 55 56
1 0 2 0 0 2 1 4 53 54 55 56
1 0 0 0 0 0 0 3 53 54 55
1 0 0 9 2 0 0 4 53 54 55 56
1 10 6 0 1 0 3 3 57 58 60
1 0 1 2 7 6 0 4 57 58 59 60
8 2 0 0 0 0 0 4 57 58 59 60
3 5 8 0 0 0 8 4 57 58 59 60
1 0 2 3 0 4 0 3 62 63 64
1 4 7 0 0 0 7 3 61 63 64
5 1 8 0 7 0 0 3 62 63 64
8 3 8 7 0 0 0 4 61 62 63 64
6 4 0 5 6 0 0 4 65 66 67 68
4 0 2 0 6 5 6 2 65 68
3 0 2 0 7 0 0 2 65 67
1 3 10 2 0 10 0 3 65 66 67
8 0 10 0 4 0 0 3 69 70 71
4 0 0 0 9 0 0 3 69 70 71
5 0 0 8 0 0 1 2 70 71
2 6 1 0 0 0 0 4 69 70 71 72
6 4 10 7 10 0 0 3 73 74 75
1 7 2 2 7 0 5 4 73 74 75 76
1 4 0 4 9 0 0 2 74 75
1 0 0 8 3 0 0 4 73 74 75 76
1 0 9 2 0 0 0 3 78 79 80
7 0 0 8 0 5 0 2 79 80
2 0 0 5 1 2 0 3 78 79 80
1 4 0 3 0 5 0 4 77 78 79 80
1 9 7 0 0 3 0 3 81 82 83
1 9 3 2 0 8 0 4 81 82 83 84
6 2 0 0 0 0 0 4 81 82 83 84
3 0 10 3 0 4 0 2 81 83
2 0 7 6 0 0 9 3 85 86 88
8 8 0 0 0 10 8 3 85 86 88
5 0 5 0 8 1 0 2 85 88
1 6 4 0 0 0 0 4 85 86 87 88
5 0 9 9 8 4 7 2 89 92
2 0 4 10 5 0 7 3 89 91 92
4 3 0 0 0 1 1 3 89 91 92
1 3 1 0 7 0 4 3 90 91 92
6 5 0 5 3 6 7 3 93 95 96
1 0 0 9 0 0 2 3 94 95 96
1 4 0 0 0 1 7 2 93 94
5 9 7 0 2 0 0 2 94 96
7 10 8 0 0 0 0 3 97 98 99
1 0 1 0 6 0 0 4 97 98 99 100
4 0 1 9 0 7 1 2 97 98
6 9 2 0 7 0 8 2 97 98
1 10 5 8 0 8 0 1 101
10 0 5 0 8 0 6 1 102
1 0 6 0 2 2 0 1 101
1 0 3 2 9 5 0 1 102
2 10 2 0 6 0 9 1 103
4 9 0 0 0 5 1 1 103
0 0 0 0 0 0 0 0
